Maximize
 
Subject To
 R3358: co0o10firstx1 - co0o10storagex1
   + 100 co0o10firstx1Biggerco0o10storagex1 >= 1
 R113043: co0o10firstx1 = 0
 R113056: co0o10firstx1Biggerco0o10storagex1 = 0
 R113127: co0o10storagex1 = 0
Bounds
 co0o10firstx1 free
 co0o10storagex1 free
 co0o10firstx1Biggerco0o10storagex1 free
Generals
 co0o10firstx1 co0o10storagex1 co0o10firstx1Biggerco0o10storagex1
End
